1
1000
86
102 1
105 1
106 1
110 1
116 1
118 1
119 1
121 1
122 1
125 1
126 1
132 1
133 1
136 2
139 1
141 1
142 1
143 1
144 1
145 1
146 1
148 2
150 1
151 1
152 1
156 1
157 1
159 1
166 1
167 1
168 1
169 1
172 1
174 2
175 4
182 1
187 1
190 1
192 1
193 1
195 1
198 1
201 1
203 1
204 1
205 1
207 2
208 1
209 1
211 1
214 1
218 1
221 1
223 1
231 1
232 2
233 2
235 1
236 1
237 1
238 1
247 1
251 1
255 1
257 2
260 1
261 1
262 1
263 2
265 1
269 1
270 1
271 1
273 1
275 1
278 1
281 1
284 2
285 3
286 1
289 1
292 1
293 1
295 1
299 1
300 1
